% seed = 1252471

mint = 47;
% maxt = 104;

nActs = 22;
dur = [0,3,4,7,2,8,8,4,6,9,1,2,5,9,2,1,9,5,7,6,6,0];

nSkills = 4;
sreq = [| 0,0,0,0,
	| 3,1,3,2,
	| 2,2,2,1,
	| 1,1,1,1,
	| 1,3,3,3,
	| 1,1,1,1,
	| 1,3,2,2,
	| 1,3,2,3,
	| 3,1,2,2,
	| 2,3,3,1,
	| 2,3,1,2,
	| 3,1,3,3,
	| 1,1,2,3,
	| 2,2,3,2,
	| 1,2,3,3,
	| 1,2,3,1,
	| 3,3,2,2,
	| 3,1,2,1,
	| 2,2,2,1,
	| 1,3,3,3,
	| 2,1,3,2,
	| 0,0,0,0, |];

nResources = 25;
mastery = [| false,false,true,true,
	| true,false,true,true,
	| true,false,false,false,
	| false,true,false,true,
	| true,false,true,true,
	| true,true,true,false,
	| false,false,true,true,
	| true,true,true,false,
	| false,false,true,false,
	| true,false,false,false,
	| true,false,true,true,
	| false,true,true,false,
	| false,false,true,false,
	| false,true,false,false,
	| false,true,true,false,
	| true,true,false,false,
	| false,true,true,true,
	| true,false,false,true,
	| false,true,false,false,
	| false,false,false,true,
	| false,true,false,true,
	| true,true,true,false,
	| true,true,false,true,
	| true,false,true,false,
	| false,false,true,false, |];

nPrecs = 31;
pred = [1,1,1,2,2,3,3,3,4,4,5,5,6,6,7,8,9,10,11,12,12,13,14,15,16,16,17,18,19,20,21];
succ = [2,3,4,9,5,10,11,6,21,7,20,8,14,7,19,13,17,12,20,14,16,14,15,17,17,21,18,19,22,22,22];

nUnrels = 105;
unpred = [2,2,2,2,2,2,2,2,2,3,3,3,3,3,4,4,4,4,4,4,4,4,4,4,4,4,4,4,5,5,5,5,5,5,5,5,6,6,6,6,6,6,6,6,6,7,7,7,7,7,7,7,7,7,7,7,7,7,8,8,8,8,8,8,8,9,9,9,9,9,9,9,9,9,10,10,10,11,11,11,11,11,11,11,11,11,12,12,13,13,13,14,14,14,15,15,15,16,17,17,18,18,19,19,20];
unsucc = [3,4,6,7,10,11,12,16,21,4,5,8,9,13,5,6,8,9,10,11,12,13,14,15,16,17,18,20,6,7,9,10,11,12,16,21,8,9,10,11,12,13,16,20,21,8,9,10,11,12,13,14,15,16,17,18,20,21,9,10,11,12,16,20,21,10,11,12,13,14,15,16,20,21,11,13,20,12,13,14,15,16,17,18,19,21,13,20,16,20,21,16,20,21,16,20,21,20,20,21,20,21,20,21,21];

USEFUL_RES = [{},
	{1,2,3,4,5,6,7,8,9,10,11,12,13,14,15,16,17,18,19,20,21,22,23,24,25},
	{1,2,3,4,5,6,7,8,9,10,11,12,13,14,15,16,17,18,19,20,21,22,23,24,25},
	{1,2,3,4,5,6,7,8,9,10,11,12,13,14,15,16,17,18,19,20,21,22,23,24,25},
	{1,2,3,4,5,6,7,8,9,10,11,12,13,14,15,16,17,18,19,20,21,22,23,24,25},
	{1,2,3,4,5,6,7,8,9,10,11,12,13,14,15,16,17,18,19,20,21,22,23,24,25},
	{1,2,3,4,5,6,7,8,9,10,11,12,13,14,15,16,17,18,19,20,21,22,23,24,25},
	{1,2,3,4,5,6,7,8,9,10,11,12,13,14,15,16,17,18,19,20,21,22,23,24,25},
	{1,2,3,4,5,6,7,8,9,10,11,12,13,14,15,16,17,18,19,20,21,22,23,24,25},
	{1,2,3,4,5,6,7,8,9,10,11,12,13,14,15,16,17,18,19,20,21,22,23,24,25},
	{1,2,3,4,5,6,7,8,9,10,11,12,13,14,15,16,17,18,19,20,21,22,23,24,25},
	{1,2,3,4,5,6,7,8,9,10,11,12,13,14,15,16,17,18,19,20,21,22,23,24,25},
	{1,2,3,4,5,6,7,8,9,10,11,12,13,14,15,16,17,18,19,20,21,22,23,24,25},
	{1,2,3,4,5,6,7,8,9,10,11,12,13,14,15,16,17,18,19,20,21,22,23,24,25},
	{1,2,3,4,5,6,7,8,9,10,11,12,13,14,15,16,17,18,19,20,21,22,23,24,25},
	{1,2,3,4,5,6,7,8,9,10,11,12,13,14,15,16,17,18,19,20,21,22,23,24,25},
	{1,2,3,4,5,6,7,8,9,10,11,12,13,14,15,16,17,18,19,20,21,22,23,24,25},
	{1,2,3,4,5,6,7,8,9,10,11,12,13,14,15,16,17,18,19,20,21,22,23,24,25},
	{1,2,3,4,5,6,7,8,9,10,11,12,13,14,15,16,17,18,19,20,21,22,23,24,25},
	{1,2,3,4,5,6,7,8,9,10,11,12,13,14,15,16,17,18,19,20,21,22,23,24,25},
	{1,2,3,4,5,6,7,8,9,10,11,12,13,14,15,16,17,18,19,20,21,22,23,24,25},
	{}];

POTENTIAL_ACT = [{2,3,4,5,6,7,8,9,10,11,12,13,14,15,16,17,18,19,20,21},
	{2,3,4,5,6,7,8,9,10,11,12,13,14,15,16,17,18,19,20,21},
	{2,3,4,5,6,7,8,9,10,11,12,13,14,15,16,17,18,19,20,21},
	{2,3,4,5,6,7,8,9,10,11,12,13,14,15,16,17,18,19,20,21},
	{2,3,4,5,6,7,8,9,10,11,12,13,14,15,16,17,18,19,20,21},
	{2,3,4,5,6,7,8,9,10,11,12,13,14,15,16,17,18,19,20,21},
	{2,3,4,5,6,7,8,9,10,11,12,13,14,15,16,17,18,19,20,21},
	{2,3,4,5,6,7,8,9,10,11,12,13,14,15,16,17,18,19,20,21},
	{2,3,4,5,6,7,8,9,10,11,12,13,14,15,16,17,18,19,20,21},
	{2,3,4,5,6,7,8,9,10,11,12,13,14,15,16,17,18,19,20,21},
	{2,3,4,5,6,7,8,9,10,11,12,13,14,15,16,17,18,19,20,21},
	{2,3,4,5,6,7,8,9,10,11,12,13,14,15,16,17,18,19,20,21},
	{2,3,4,5,6,7,8,9,10,11,12,13,14,15,16,17,18,19,20,21},
	{2,3,4,5,6,7,8,9,10,11,12,13,14,15,16,17,18,19,20,21},
	{2,3,4,5,6,7,8,9,10,11,12,13,14,15,16,17,18,19,20,21},
	{2,3,4,5,6,7,8,9,10,11,12,13,14,15,16,17,18,19,20,21},
	{2,3,4,5,6,7,8,9,10,11,12,13,14,15,16,17,18,19,20,21},
	{2,3,4,5,6,7,8,9,10,11,12,13,14,15,16,17,18,19,20,21},
	{2,3,4,5,6,7,8,9,10,11,12,13,14,15,16,17,18,19,20,21},
	{2,3,4,5,6,7,8,9,10,11,12,13,14,15,16,17,18,19,20,21},
	{2,3,4,5,6,7,8,9,10,11,12,13,14,15,16,17,18,19,20,21},
	{2,3,4,5,6,7,8,9,10,11,12,13,14,15,16,17,18,19,20,21},
	{2,3,4,5,6,7,8,9,10,11,12,13,14,15,16,17,18,19,20,21},
	{2,3,4,5,6,7,8,9,10,11,12,13,14,15,16,17,18,19,20,21},
	{2,3,4,5,6,7,8,9,10,11,12,13,14,15,16,17,18,19,20,21}];
